## HW 4 (1a) Facility Location implementation

set I := Rosslyn;
set L := Blue_pos Blue_neg Orange_pos Orange_neg;

param TIME_TO :
			Rosslyn :=
Blue_pos	24	
Blue_neg	30	
Orange_pos	22 
Orange_neg	35;

param TRAFFIC :=

	[Rosslyn,*,*]:	Blue_pos	Blue_neg	Orange_pos	Orange_neg :=
		Blue_pos	0			0			0			658
		Blue_neg	0			0			0			40.75
		Orange_pos	14.75		1171.25		0			0
		Orange_neg												;





param INTERVAL := 12;

param TRANSFER_TIME := 1;
